36 47 19 49 48 
27 69 30 51 50 
95 87 57 43 91 100 
52 99 85 37 93 
45 8 46 
83 82 18 6 
62 11 10 
14 44 38 97 13 
2 21 73 26 
65 71 9 66 1 
28 29 78 34 35 77 
53 
33 81 3 54 24 80 
39 23 67 56 4 
59 98 16 86 17 
40 55 25 
92 42 15 41 58 
63 64 90 20 32 70 
12 76 79 68 
31 88 7 
94 96 
72 75 22 74 
5 61 84 60 89 
